p edge 100 990
e 1 12
e 1 20
e 1 28
e 1 29
e 1 34
e 1 49
e 1 53
e 1 55
e 1 59
e 1 65
e 1 69
e 1 74
e 1 83
e 1 88
e 1 89
e 1 91
e 1 95
e 1 100
e 2 12
e 2 14
e 2 18
e 2 23
e 2 24
e 2 26
e 2 27
e 2 30
e 2 31
e 2 36
e 2 38
e 2 41
e 2 42
e 2 51
e 2 54
e 2 56
e 2 63
e 2 73
e 2 78
e 2 92
e 2 94
e 3 4
e 3 11
e 3 19
e 3 21
e 3 24
e 3 25
e 3 41
e 3 45
e 3 48
e 3 57
e 3 60
e 3 70
e 3 73
e 3 86
e 3 88
e 3 92
e 3 100
e 4 6
e 4 7
e 4 21
e 4 23
e 4 31
e 4 34
e 4 37
e 4 38
e 4 40
e 4 46
e 4 47
e 4 49
e 4 50
e 4 62
e 4 63
e 4 73
e 4 88
e 4 89
e 4 90
e 4 92
e 4 97
e 5 9
e 5 12
e 5 27
e 5 28
e 5 39
e 5 42
e 5 53
e 5 58
e 5 61
e 5 71
e 5 78
e 5 79
e 5 80
e 5 88
e 5 91
e 5 93
e 5 99
e 6 9
e 6 21
e 6 27
e 6 28
e 6 44
e 6 47
e 6 48
e 6 75
e 6 83
e 7 9
e 7 12
e 7 16
e 7 21
e 7 22
e 7 25
e 7 34
e 7 35
e 7 40
e 7 43
e 7 44
e 7 51
e 7 55
e 7 57
e 7 64
e 7 71
e 7 75
e 7 76
e 7 80
e 7 82
e 7 94
e 7 98
e 8 13
e 8 18
e 8 20
e 8 23
e 8 27
e 8 29
e 8 30
e 8 37
e 8 40
e 8 46
e 8 48
e 8 49
e 8 51
e 8 57
e 8 58
e 8 59
e 8 67
e 8 68
e 8 70
e 8 77
e 8 86
e 8 87
e 8 88
e 9 18
e 9 21
e 9 24
e 9 33
e 9 39
e 9 41
e 9 49
e 9 52
e 9 58
e 9 59
e 9 64
e 9 70
e 9 74
e 9 78
e 9 80
e 9 81
e 9 92
e 9 94
e 9 96
e 9 99
e 10 11
e 10 15
e 10 19
e 10 28
e 10 31
e 10 35
e 10 38
e 10 45
e 10 46
e 10 50
e 10 51
e 10 53
e 10 56
e 10 57
e 10 58
e 10 62
e 10 65
e 10 83
e 10 84
e 10 86
e 11 14
e 11 15
e 11 19
e 11 24
e 11 27
e 11 30
e 11 37
e 11 40
e 11 41
e 11 43
e 11 53
e 11 59
e 11 63
e 11 66
e 11 72
e 11 77
e 11 79
e 11 87
e 11 93
e 11 96
e 12 16
e 12 17
e 12 18
e 12 25
e 12 29
e 12 35
e 12 38
e 12 39
e 12 41
e 12 47
e 12 49
e 12 52
e 12 53
e 12 55
e 12 76
e 12 78
e 12 83
e 12 93
e 12 100
e 13 14
e 13 22
e 13 28
e 13 37
e 13 40
e 13 50
e 13 53
e 13 84
e 13 86
e 13 89
e 13 95
e 13 96
e 13 97
e 13 99
e 13 100
e 14 25
e 14 41
e 14 47
e 14 48
e 14 51
e 14 54
e 14 58
e 14 71
e 14 83
e 14 85
e 14 86
e 14 89
e 14 99
e 15 18
e 15 21
e 15 34
e 15 41
e 15 47
e 15 53
e 15 59
e 15 61
e 15 65
e 15 67
e 15 81
e 15 90
e 15 91
e 15 99
e 15 100
e 16 25
e 16 26
e 16 33
e 16 41
e 16 49
e 16 52
e 16 58
e 16 65
e 16 67
e 16 72
e 16 78
e 16 88
e 16 92
e 16 93
e 16 94
e 17 36
e 17 39
e 17 55
e 17 59
e 17 64
e 17 87
e 17 93
e 17 97
e 17 100
e 18 23
e 18 26
e 18 33
e 18 36
e 18 39
e 18 40
e 18 64
e 18 70
e 18 75
e 18 77
e 18 83
e 19 35
e 19 39
e 19 41
e 19 42
e 19 52
e 19 57
e 19 65
e 19 69
e 19 76
e 19 79
e 19 89
e 19 96
e 19 100
e 20 33
e 20 34
e 20 46
e 20 52
e 20 53
e 20 55
e 20 56
e 20 57
e 20 59
e 20 66
e 20 67
e 20 70
e 20 74
e 20 78
e 20 79
e 20 82
e 20 96
e 21 36
e 21 38
e 21 39
e 21 40
e 21 51
e 21 53
e 21 57
e 21 63
e 21 64
e 21 66
e 21 69
e 21 70
e 21 71
e 21 73
e 21 77
e 21 87
e 21 91
e 21 100
e 22 23
e 22 34
e 22 35
e 22 41
e 22 48
e 22 51
e 22 52
e 22 59
e 22 76
e 22 80
e 22 82
e 22 89
e 22 90
e 22 99
e 23 30
e 23 32
e 23 48
e 23 49
e 23 50
e 23 58
e 23 72
e 23 77
e 23 78
e 23 80
e 23 89
e 23 91
e 23 93
e 23 97
e 24 27
e 24 39
e 24 43
e 24 48
e 24 49
e 24 51
e 24 62
e 24 64
e 24 66
e 24 74
e 24 78
e 24 81
e 24 83
e 24 88
e 24 92
e 24 98
e 24 99
e 24 100
e 25 26
e 25 28
e 25 34
e 25 39
e 25 41
e 25 49
e 25 53
e 25 57
e 25 58
e 25 64
e 25 70
e 25 77
e 25 82
e 25 100
e 26 27
e 26 32
e 26 35
e 26 47
e 26 49
e 26 53
e 26 54
e 26 58
e 26 59
e 26 60
e 26 62
e 26 64
e 26 66
e 26 76
e 26 80
e 27 29
e 27 33
e 27 37
e 27 39
e 27 55
e 27 61
e 27 66
e 27 68
e 27 75
e 27 79
e 27 82
e 27 90
e 27 92
e 27 93
e 27 96
e 27 98
e 27 100
e 28 36
e 28 44
e 28 45
e 28 53
e 28 66
e 28 71
e 28 73
e 28 79
e 28 92
e 28 94
e 28 97
e 29 32
e 29 33
e 29 35
e 29 36
e 29 37
e 29 38
e 29 41
e 29 54
e 29 57
e 29 58
e 29 66
e 29 72
e 29 76
e 29 80
e 29 83
e 29 94
e 30 31
e 30 42
e 30 45
e 30 46
e 30 50
e 30 53
e 30 56
e 30 60
e 30 64
e 30 76
e 30 82
e 31 37
e 31 43
e 31 44
e 31 47
e 31 59
e 31 61
e 31 66
e 31 78
e 31 79
e 31 83
e 31 88
e 31 93
e 31 96
e 31 97
e 32 36
e 32 40
e 32 51
e 32 54
e 32 56
e 32 57
e 32 62
e 32 63
e 32 67
e 32 79
e 32 88
e 32 91
e 32 94
e 33 66
e 33 70
e 33 71
e 33 89
e 33 96
e 34 37
e 34 38
e 34 40
e 34 46
e 34 47
e 34 53
e 34 59
e 34 62
e 34 72
e 34 73
e 34 76
e 34 83
e 34 85
e 34 91
e 34 96
e 34 99
e 35 36
e 35 42
e 35 45
e 35 46
e 35 49
e 35 53
e 35 59
e 35 60
e 35 64
e 35 67
e 35 68
e 35 86
e 35 91
e 35 99
e 36 37
e 36 47
e 36 48
e 36 56
e 36 57
e 36 67
e 36 69
e 36 71
e 36 73
e 36 76
e 36 77
e 36 78
e 36 91
e 36 92
e 36 95
e 37 47
e 37 53
e 37 59
e 37 68
e 37 71
e 37 83
e 37 84
e 37 87
e 37 92
e 37 93
e 37 98
e 38 50
e 38 52
e 38 54
e 38 56
e 38 57
e 38 60
e 38 76
e 38 77
e 38 83
e 38 85
e 38 88
e 38 95
e 38 98
e 39 48
e 39 52
e 39 55
e 39 56
e 39 59
e 39 67
e 39 69
e 39 78
e 39 79
e 39 84
e 39 86
e 39 87
e 39 96
e 40 45
e 40 48
e 40 49
e 40 50
e 40 52
e 40 59
e 40 63
e 40 65
e 40 66
e 40 72
e 40 78
e 40 79
e 40 83
e 40 90
e 40 92
e 41 55
e 41 57
e 41 59
e 41 65
e 41 72
e 41 74
e 41 81
e 41 90
e 41 94
e 41 97
e 42 47
e 42 49
e 42 50
e 42 51
e 42 53
e 42 61
e 42 65
e 42 66
e 42 71
e 42 75
e 42 77
e 42 79
e 42 80
e 42 85
e 42 86
e 42 88
e 42 89
e 42 94
e 42 96
e 43 45
e 43 52
e 43 70
e 43 74
e 43 78
e 43 81
e 43 85
e 44 48
e 44 61
e 44 67
e 44 68
e 44 70
e 44 77
e 44 83
e 44 86
e 44 90
e 44 91
e 44 100
e 45 50
e 45 51
e 45 52
e 45 54
e 45 55
e 45 58
e 45 59
e 45 71
e 45 74
e 45 85
e 45 87
e 45 98
e 46 47
e 46 49
e 46 50
e 46 53
e 46 60
e 46 70
e 46 73
e 46 74
e 46 77
e 46 80
e 46 97
e 47 49
e 47 51
e 47 56
e 47 57
e 47 60
e 47 65
e 47 66
e 47 71
e 47 75
e 47 78
e 47 81
e 47 88
e 47 94
e 47 95
e 47 98
e 48 51
e 48 52
e 48 54
e 48 56
e 48 68
e 48 70
e 48 71
e 48 74
e 48 75
e 48 77
e 48 81
e 48 82
e 48 90
e 48 91
e 48 93
e 48 94
e 49 58
e 49 64
e 49 73
e 49 85
e 49 92
e 49 93
e 49 97
e 49 99
e 50 54
e 50 55
e 50 67
e 50 74
e 50 76
e 50 81
e 50 84
e 50 86
e 50 94
e 50 98
e 51 54
e 51 55
e 51 58
e 51 61
e 51 64
e 51 65
e 51 71
e 51 76
e 51 84
e 51 85
e 51 90
e 51 94
e 51 95
e 51 96
e 51 98
e 52 54
e 52 60
e 52 65
e 52 68
e 52 70
e 52 71
e 52 76
e 52 78
e 52 79
e 52 80
e 52 82
e 52 99
e 53 56
e 53 60
e 53 63
e 53 67
e 53 69
e 53 70
e 53 73
e 53 76
e 53 80
e 53 85
e 53 88
e 53 90
e 53 96
e 53 98
e 53 100
e 54 60
e 54 66
e 54 71
e 54 74
e 54 85
e 54 91
e 54 95
e 55 56
e 55 58
e 55 64
e 55 67
e 55 68
e 55 84
e 55 88
e 55 98
e 56 63
e 56 64
e 56 67
e 56 75
e 56 77
e 56 79
e 56 89
e 56 93
e 56 98
e 57 62
e 57 66
e 57 68
e 57 72
e 57 79
e 57 83
e 57 88
e 57 98
e 58 59
e 58 60
e 58 65
e 58 73
e 58 74
e 58 77
e 58 84
e 58 86
e 58 90
e 58 98
e 59 60
e 59 64
e 59 65
e 59 68
e 59 72
e 59 73
e 59 83
e 59 84
e 59 85
e 59 89
e 59 90
e 59 93
e 59 97
e 59 98
e 59 99
e 60 62
e 60 66
e 60 74
e 60 80
e 60 88
e 61 65
e 61 68
e 61 74
e 61 96
e 61 99
e 61 100
e 62 64
e 62 66
e 62 70
e 62 71
e 62 72
e 62 77
e 62 82
e 62 85
e 62 91
e 62 93
e 63 73
e 63 75
e 63 76
e 63 81
e 63 90
e 63 96
e 63 100
e 64 67
e 64 69
e 64 74
e 64 76
e 64 77
e 64 87
e 64 95
e 64 98
e 65 69
e 65 74
e 65 76
e 65 89
e 65 98
e 66 68
e 66 74
e 66 83
e 66 88
e 66 91
e 66 94
e 66 96
e 67 74
e 67 78
e 67 86
e 67 87
e 67 96
e 67 100
e 68 70
e 68 71
e 68 73
e 68 79
e 68 93
e 68 95
e 68 96
e 68 98
e 69 73
e 69 76
e 69 78
e 69 81
e 69 84
e 69 86
e 69 98
e 69 99
e 70 78
e 70 87
e 70 90
e 70 95
e 70 96
e 71 73
e 71 78
e 71 79
e 71 91
e 71 92
e 72 73
e 72 80
e 72 81
e 72 87
e 72 92
e 72 97
e 72 98
e 72 100
e 73 76
e 73 81
e 73 82
e 73 93
e 73 94
e 74 75
e 74 76
e 74 82
e 74 92
e 74 96
e 75 82
e 75 88
e 75 97
e 76 78
e 76 85
e 76 91
e 77 93
e 77 97
e 77 99
e 78 79
e 78 83
e 78 93
e 78 96
e 78 98
e 79 82
e 79 84
e 79 91
e 80 83
e 80 92
e 80 94
e 80 95
e 80 96
e 80 99
e 81 87
e 82 83
e 82 94
e 83 89
e 83 95
e 83 96
e 83 99
e 84 85
e 84 92
e 84 93
e 85 87
e 85 94
e 86 88
e 86 90
e 86 95
e 86 100
e 87 91
e 87 92
e 87 96
e 88 95
e 88 97
e 88 98
e 88 100
e 89 90
e 89 91
e 89 97
e 89 99
e 90 92
e 90 93
e 90 95
e 91 98
e 92 93
e 92 100
e 93 97
e 94 99
e 94 100
e 95 98
e 97 98
e 99 100
